language Essence 1.3

letting costTC be
        function((1, 1) --> 3, (1, 2) --> 2, (1, 3) --> 6, (1, 4) --> 3, (1, 5) --> 6, (1, 6) --> 3, (2, 1) --> 3,
                 (2, 2) --> 3, (2, 3) --> 2, (2, 4) --> 3, (2, 5) --> 7, (2, 6) --> 7, (3, 1) --> 1, (3, 2) --> 7,
                 (3, 3) --> 8, (3, 4) --> 10, (3, 5) --> 11, (3, 6) --> 8, (4, 1) --> 9, (4, 2) --> 5, (4, 3) --> 1,
                 (4, 4) --> 2, (4, 5) --> 9, (4, 6) --> 3, (5, 1) --> 2, (5, 2) --> 10, (5, 3) --> 7, (5, 4) --> 7,
                 (5, 5) --> 11, (5, 6) --> 6, (6, 1) --> 4, (6, 2) --> 2, (6, 3) --> 8, (6, 4) --> 10, (6, 5) --> 4,
                 (6, 6) --> 5, (7, 1) --> 9, (7, 2) --> 7, (7, 3) --> 10, (7, 4) --> 2, (7, 5) --> 10, (7, 6) --> 11,
                 (8, 1) --> 2, (8, 2) --> 4, (8, 3) --> 9, (8, 4) --> 1, (8, 5) --> 1, (8, 6) --> 10, (9, 1) --> 10,
                 (9, 2) --> 4, (9, 3) --> 3, (9, 4) --> 2, (9, 5) --> 9, (9, 6) --> 4, (10, 1) --> 9, (10, 2) --> 10,
                 (10, 3) --> 1, (10, 4) --> 1, (10, 5) --> 11, (10, 6) --> 3, (11, 1) --> 10, (11, 2) --> 8,
                 (11, 3) --> 10, (11, 4) --> 3, (11, 5) --> 8, (11, 6) --> 10, (12, 1) --> 2, (12, 2) --> 6,
                 (12, 3) --> 5, (12, 4) --> 9, (12, 5) --> 11, (12, 6) --> 10, (13, 1) --> 1, (13, 2) --> 11,
                 (13, 3) --> 5, (13, 4) --> 2, (13, 5) --> 10, (13, 6) --> 5, (14, 1) --> 7, (14, 2) --> 8,
                 (14, 3) --> 7, (14, 4) --> 5, (14, 5) --> 6, (14, 6) --> 11, (15, 1) --> 4, (15, 2) --> 2,
                 (15, 3) --> 8, (15, 4) --> 3, (15, 5) --> 2, (15, 6) --> 2, (16, 1) --> 4, (16, 2) --> 3,
                 (16, 3) --> 8, (16, 4) --> 3, (16, 5) --> 9, (16, 6) --> 5, (17, 1) --> 4, (17, 2) --> 6,
                 (17, 3) --> 11, (17, 4) --> 10, (17, 5) --> 11, (17, 6) --> 7, (18, 1) --> 10, (18, 2) --> 3,
                 (18, 3) --> 4, (18, 4) --> 1, (18, 5) --> 10, (18, 6) --> 8, (19, 1) --> 8, (19, 2) --> 6,
                 (19, 3) --> 11, (19, 4) --> 3, (19, 5) --> 8, (19, 6) --> 2, (20, 1) --> 1, (20, 2) --> 7,
                 (20, 3) --> 11, (20, 4) --> 11, (20, 5) --> 8, (20, 6) --> 8, (21, 1) --> 7, (21, 2) --> 1,
                 (21, 3) --> 7, (21, 4) --> 4, (21, 5) --> 11, (21, 6) --> 11, (22, 1) --> 2, (22, 2) --> 9,
                 (22, 3) --> 2, (22, 4) --> 8, (22, 5) --> 2, (22, 6) --> 3, (23, 1) --> 3, (23, 2) --> 8,
                 (23, 3) --> 4, (23, 4) --> 10, (23, 5) --> 4, (23, 6) --> 8, (24, 1) --> 11, (24, 2) --> 8,
                 (24, 3) --> 7, (24, 4) --> 6, (24, 5) --> 3, (24, 6) --> 1, (25, 1) --> 10, (25, 2) --> 11,
                 (25, 3) --> 11, (25, 4) --> 5, (25, 5) --> 8, (25, 6) --> 2, (26, 1) --> 3, (26, 2) --> 3,
                 (26, 3) --> 4, (26, 4) --> 11, (26, 5) --> 3, (26, 6) --> 10, (27, 1) --> 5, (27, 2) --> 8,
                 (27, 3) --> 2, (27, 4) --> 10, (27, 5) --> 2, (27, 6) --> 1, (28, 1) --> 8, (28, 2) --> 4,
                 (28, 3) --> 4, (28, 4) --> 6, (28, 5) --> 8, (28, 6) --> 3, (29, 1) --> 11, (29, 2) --> 1,
                 (29, 3) --> 2, (29, 4) --> 11, (29, 5) --> 5, (29, 6) --> 4, (30, 1) --> 8, (30, 2) --> 9,
                 (30, 3) --> 7, (30, 4) --> 8, (30, 5) --> 6, (30, 6) --> 4, (31, 1) --> 2, (31, 2) --> 3,
                 (31, 3) --> 4, (31, 4) --> 2, (31, 5) --> 9, (31, 6) --> 2, (32, 1) --> 7, (32, 2) --> 10,
                 (32, 3) --> 11, (32, 4) --> 6, (32, 5) --> 7, (32, 6) --> 10, (33, 1) --> 1, (33, 2) --> 9,
                 (33, 3) --> 3, (33, 4) --> 9, (33, 5) --> 7, (33, 6) --> 7, (34, 1) --> 11, (34, 2) --> 9,
                 (34, 3) --> 9, (34, 4) --> 9, (34, 5) --> 10, (34, 6) --> 3, (35, 1) --> 1, (35, 2) --> 8,
                 (35, 3) --> 6, (35, 4) --> 2, (35, 5) --> 7, (35, 6) --> 1, (36, 1) --> 11, (36, 2) --> 11,
                 (36, 3) --> 7, (36, 4) --> 2, (36, 5) --> 10, (36, 6) --> 9, (37, 1) --> 2, (37, 2) --> 8,
                 (37, 3) --> 6, (37, 4) --> 2, (37, 5) --> 8, (37, 6) --> 6, (38, 1) --> 7, (38, 2) --> 5,
                 (38, 3) --> 5, (38, 4) --> 5, (38, 5) --> 5, (38, 6) --> 2, (39, 1) --> 8, (39, 2) --> 7,
                 (39, 3) --> 9, (39, 4) --> 10, (39, 5) --> 11, (39, 6) --> 3, (40, 1) --> 2, (40, 2) --> 4,
                 (40, 3) --> 6, (40, 4) --> 3, (40, 5) --> 9, (40, 6) --> 8, (41, 1) --> 11, (41, 2) --> 6,
                 (41, 3) --> 10, (41, 4) --> 3, (41, 5) --> 10, (41, 6) --> 11, (42, 1) --> 6, (42, 2) --> 4,
                 (42, 3) --> 7, (42, 4) --> 11, (42, 5) --> 4, (42, 6) --> 8, (43, 1) --> 6, (43, 2) --> 6,
                 (43, 3) --> 2, (43, 4) --> 2, (43, 5) --> 6, (43, 6) --> 9)
letting costWT be
        function((1, 1) --> 3, (1, 2) --> 1, (1, 3) --> 3, (1, 4) --> 2, (1, 5) --> 1, (1, 6) --> 2, (1, 7) --> 3,
                 (1, 8) --> 1, (1, 9) --> 1, (1, 10) --> 3, (1, 11) --> 2, (1, 12) --> 3, (1, 13) --> 1, (1, 14) --> 1,
                 (1, 15) --> 1, (1, 16) --> 3, (1, 17) --> 1, (1, 18) --> 3, (1, 19) --> 1, (1, 20) --> 2,
                 (1, 21) --> 2, (1, 22) --> 1, (1, 23) --> 3, (1, 24) --> 2, (1, 25) --> 3, (1, 26) --> 3,
                 (1, 27) --> 3, (1, 28) --> 2, (1, 29) --> 3, (1, 30) --> 3, (1, 31) --> 3, (1, 32) --> 3,
                 (1, 33) --> 2, (1, 34) --> 2, (1, 35) --> 2, (1, 36) --> 2, (1, 37) --> 1, (1, 38) --> 3,
                 (1, 39) --> 2, (1, 40) --> 1, (1, 41) --> 1, (1, 42) --> 2, (1, 43) --> 2, (2, 1) --> 2, (2, 2) --> 1,
                 (2, 3) --> 1, (2, 4) --> 1, (2, 5) --> 3, (2, 6) --> 1, (2, 7) --> 1, (2, 8) --> 3, (2, 9) --> 3,
                 (2, 10) --> 3, (2, 11) --> 2, (2, 12) --> 2, (2, 13) --> 3, (2, 14) --> 2, (2, 15) --> 2,
                 (2, 16) --> 2, (2, 17) --> 1, (2, 18) --> 2, (2, 19) --> 2, (2, 20) --> 1, (2, 21) --> 2,
                 (2, 22) --> 2, (2, 23) --> 3, (2, 24) --> 3, (2, 25) --> 1, (2, 26) --> 1, (2, 27) --> 2,
                 (2, 28) --> 2, (2, 29) --> 1, (2, 30) --> 3, (2, 31) --> 3, (2, 32) --> 1, (2, 33) --> 3,
                 (2, 34) --> 3, (2, 35) --> 3, (2, 36) --> 1, (2, 37) --> 2, (2, 38) --> 3, (2, 39) --> 1,
                 (2, 40) --> 3, (2, 41) --> 1, (2, 42) --> 3, (2, 43) --> 1, (3, 1) --> 2, (3, 2) --> 1, (3, 3) --> 3,
                 (3, 4) --> 1, (3, 5) --> 3, (3, 6) --> 3, (3, 7) --> 2, (3, 8) --> 1, (3, 9) --> 3, (3, 10) --> 2,
                 (3, 11) --> 3, (3, 12) --> 3, (3, 13) --> 2, (3, 14) --> 2, (3, 15) --> 1, (3, 16) --> 1,
                 (3, 17) --> 1, (3, 18) --> 3, (3, 19) --> 1, (3, 20) --> 2, (3, 21) --> 3, (3, 22) --> 2,
                 (3, 23) --> 2, (3, 24) --> 1, (3, 25) --> 1, (3, 26) --> 2, (3, 27) --> 3, (3, 28) --> 3,
                 (3, 29) --> 1, (3, 30) --> 3, (3, 31) --> 2, (3, 32) --> 1, (3, 33) --> 3, (3, 34) --> 2,
                 (3, 35) --> 1, (3, 36) --> 3, (3, 37) --> 3, (3, 38) --> 3, (3, 39) --> 3, (3, 40) --> 3,
                 (3, 41) --> 1, (3, 42) --> 1, (3, 43) --> 1, (4, 1) --> 1, (4, 2) --> 3, (4, 3) --> 2, (4, 4) --> 3,
                 (4, 5) --> 3, (4, 6) --> 3, (4, 7) --> 1, (4, 8) --> 2, (4, 9) --> 1, (4, 10) --> 3, (4, 11) --> 1,
                 (4, 12) --> 2, (4, 13) --> 2, (4, 14) --> 2, (4, 15) --> 3, (4, 16) --> 3, (4, 17) --> 1,
                 (4, 18) --> 2, (4, 19) --> 1, (4, 20) --> 2, (4, 21) --> 2, (4, 22) --> 2, (4, 23) --> 3,
                 (4, 24) --> 2, (4, 25) --> 1, (4, 26) --> 2, (4, 27) --> 2, (4, 28) --> 1, (4, 29) --> 3,
                 (4, 30) --> 2, (4, 31) --> 2, (4, 32) --> 3, (4, 33) --> 1, (4, 34) --> 1, (4, 35) --> 3,
                 (4, 36) --> 1, (4, 37) --> 3, (4, 38) --> 2, (4, 39) --> 1, (4, 40) --> 1, (4, 41) --> 3,
                 (4, 42) --> 3, (4, 43) --> 3, (5, 1) --> 3, (5, 2) --> 3, (5, 3) --> 2, (5, 4) --> 1, (5, 5) --> 1,
                 (5, 6) --> 2, (5, 7) --> 2, (5, 8) --> 1, (5, 9) --> 2, (5, 10) --> 1, (5, 11) --> 3, (5, 12) --> 1,
                 (5, 13) --> 2, (5, 14) --> 1, (5, 15) --> 1, (5, 16) --> 1, (5, 17) --> 2, (5, 18) --> 2,
                 (5, 19) --> 2, (5, 20) --> 2, (5, 21) --> 2, (5, 22) --> 2, (5, 23) --> 2, (5, 24) --> 1,
                 (5, 25) --> 1, (5, 26) --> 2, (5, 27) --> 2, (5, 28) --> 3, (5, 29) --> 3, (5, 30) --> 1,
                 (5, 31) --> 3, (5, 32) --> 2, (5, 33) --> 3, (5, 34) --> 1, (5, 35) --> 3, (5, 36) --> 3,
                 (5, 37) --> 3, (5, 38) --> 3, (5, 39) --> 2, (5, 40) --> 1, (5, 41) --> 2, (5, 42) --> 3,
                 (5, 43) --> 3, (6, 1) --> 2, (6, 2) --> 1, (6, 3) --> 1, (6, 4) --> 2, (6, 5) --> 3, (6, 6) --> 2,
                 (6, 7) --> 3, (6, 8) --> 3, (6, 9) --> 2, (6, 10) --> 1, (6, 11) --> 1, (6, 12) --> 2, (6, 13) --> 1,
                 (6, 14) --> 2, (6, 15) --> 2, (6, 16) --> 3, (6, 17) --> 1, (6, 18) --> 1, (6, 19) --> 3,
                 (6, 20) --> 1, (6, 21) --> 1, (6, 22) --> 3, (6, 23) --> 1, (6, 24) --> 3, (6, 25) --> 1,
                 (6, 26) --> 1, (6, 27) --> 2, (6, 28) --> 1, (6, 29) --> 2, (6, 30) --> 3, (6, 31) --> 1,
                 (6, 32) --> 3, (6, 33) --> 1, (6, 34) --> 3, (6, 35) --> 2, (6, 36) --> 3, (6, 37) --> 3,
                 (6, 38) --> 2, (6, 39) --> 2, (6, 40) --> 2, (6, 41) --> 2, (6, 42) --> 3, (6, 43) --> 3, (7, 1) --> 3,
                 (7, 2) --> 1, (7, 3) --> 2, (7, 4) --> 1, (7, 5) --> 2, (7, 6) --> 2, (7, 7) --> 3, (7, 8) --> 2,
                 (7, 9) --> 3, (7, 10) --> 2, (7, 11) --> 3, (7, 12) --> 3, (7, 13) --> 1, (7, 14) --> 2, (7, 15) --> 2,
                 (7, 16) --> 3, (7, 17) --> 2, (7, 18) --> 3, (7, 19) --> 1, (7, 20) --> 2, (7, 21) --> 3,
                 (7, 22) --> 1, (7, 23) --> 3, (7, 24) --> 2, (7, 25) --> 2, (7, 26) --> 2, (7, 27) --> 1,
                 (7, 28) --> 1, (7, 29) --> 3, (7, 30) --> 1, (7, 31) --> 2, (7, 32) --> 1, (7, 33) --> 3,
                 (7, 34) --> 2, (7, 35) --> 1, (7, 36) --> 1, (7, 37) --> 3, (7, 38) --> 1, (7, 39) --> 3,
                 (7, 40) --> 3, (7, 41) --> 2, (7, 42) --> 1, (7, 43) --> 2, (8, 1) --> 3, (8, 2) --> 1, (8, 3) --> 3,
                 (8, 4) --> 1, (8, 5) --> 2, (8, 6) --> 2, (8, 7) --> 2, (8, 8) --> 2, (8, 9) --> 3, (8, 10) --> 1,
                 (8, 11) --> 3, (8, 12) --> 1, (8, 13) --> 3, (8, 14) --> 3, (8, 15) --> 2, (8, 16) --> 2,
                 (8, 17) --> 1, (8, 18) --> 2, (8, 19) --> 3, (8, 20) --> 1, (8, 21) --> 3, (8, 22) --> 3,
                 (8, 23) --> 2, (8, 24) --> 3, (8, 25) --> 1, (8, 26) --> 3, (8, 27) --> 1, (8, 28) --> 3,
                 (8, 29) --> 3, (8, 30) --> 2, (8, 31) --> 2, (8, 32) --> 2, (8, 33) --> 2, (8, 34) --> 3,
                 (8, 35) --> 2, (8, 36) --> 3, (8, 37) --> 3, (8, 38) --> 2, (8, 39) --> 2, (8, 40) --> 3,
                 (8, 41) --> 1, (8, 42) --> 3, (8, 43) --> 3)
letting demand be function(1 --> 37, 2 --> 37, 3 --> 37, 4 --> 37, 5 --> 37, 6 --> 37)
letting maxCost be 36
letting n_customer be 6
letting n_transshipment be 43
letting n_warehouses be 8
letting stock be function(1 --> 36, 2 --> 33, 3 --> 35, 4 --> 33, 5 --> 39, 6 --> 37, 7 --> 34, 8 --> 41)
